859670
1, 47, 57, 33, 9, 20, 21, 96, 30, 77, 41, 6, 75, 69, 18, 56, 10, 93, 63, 13, 99, 68, 80, 87, 45, 86, 81, 4, 66, 7, 14, 39, 92, 84, 22, 3, 95, 25, 78, 51, 79, 29, 40, 94, 26, 17, 12, 19, 59, 90, 24, 43, 52, 65, 54, 98, 23, 11, 28, 71, 34, 46, 67, 61, 58, 83, 88, 50, 38, 36, 72, 53, 2, 35, 42, 97, 44, 55, 49, 62, 31, 60, 32, 70, 74, 37, 48, 82, 16, 15, 76, 91, 8, 89, 85, 73, 5, 64, 27
